NAME : amz2048.102241_102241.tour
COMMENT : Cost = 102241_102241
COMMENT : Found by LKH-AMZ [Keld Helsgaun] Sun May 11 15:05:49 2025
COMMENT : TW viol.: 0 #: 0
TYPE : TOUR
DIMENSION : 123
TOUR_SECTION
93
45
36
56
120
107
30
95
117
8
97
100
113
79
42
89
110
62
90
91
83
29
112
27
2
34
17
88
38
25
22
1
61
99
66
14
82
35
3
4
50
104
116
87
21
53
9
23
114
109
96
32
31
80
12
78
92
40
102
64
26
16
6
63
85
20
55
119
54
19
122
39
59
60
108
68
48
57
121
98
86
15
101
52
74
76
28
43
84
44
106
103
51
70
33
75
47
13
49
94
18
77
118
67
71
65
72
69
11
115
111
10
46
37
24
41
73
105
5
81
58
123
7
-1
EOF
